5
4
20
1 1.3 1.55 1.75 2.1
21 47 28 27 11 15 14 13 39 24 32 22 42 32 8 46 44 37 29 47 20 14 32 24 11 13 21 8 30 42 49 21 20 20 16 45 45 40 37 17 28 21 41 46 8 7 19 33 40 15 43 44 5 14 38 10 33 41 24 49 20 37 32 6 13 38 30 20 37 46 41 46 43 16 34 43 21 32 22 21 